letting n =  10
letting blocks =  [[1, 2], [1, 5], [2, 1], [2, 2], [2, 4], [2, 7], [3, 7], [5, 3], [5, 6], [5, 8], [5, 9], [5, 10], [6, 2], [6, 3], [6, 6], [6, 7], [6, 8], [6, 10], [7, 6], [7, 7], [7, 8], [7, 10], [8, 1], [8, 2], [9, 3], [9, 4], [9, 5], [9, 6], [9, 8], [10, 3], [10, 6], [10, 9]]
